(set-logic ALL)
(synth-fun Condition_0 ((vg_0 Int) (vfind_condition_0 Int) (mainv%loop.bound_0 Int) (mainv%loop.bound24_0 Int) (mainv%loop.bound25_0 Int) (mainv%loop.bound26_0 Int) (mainv%loop.bound27_0 Int) (mainv%loop.bound28_0 Int) (mainv%loop.bound29_0 Int) (mainv%loop.bound30_0 Int) (mainv%loop.bound32_0 Int) (mainv%_39_0 Int) (mainv%.66.i.i_0 Int) (mainv%_42_0 Bool) (mainv%_43_0 Bool) (mainv%_44_0 Bool) (mainv%..i.i_0 Int) (mainv%.70.i.i_0 Int) (mainv%or.cond73.i.i_0 Bool) (mainv%.67.i.i_0 Int) (mainv%_48_0 Bool) (mainv%_49_0 Bool) (mainv%or.cond72.i.i_0 Bool) (mainv%or.cond.i.i_0 Bool) (mainv%.052.i.i.ph_0 Int) (mainv%.049.i.i.ph_0 Int) (mainv%.046.i.i.ph_0 Int) (mainv%.0.i.i.ph_0 Int) (mainv%.038.i.i_0 Int) ) Bool
    ((Start Bool) (Atom Bool) (Expr Int) (Arr (Array Int Int)))
    ((Start Bool (Atom (Variable Bool) (Constant Bool) ))
    (Atom Bool ((>= Expr Expr) (<= Expr Expr) (> Expr Expr) (< Expr Expr) (= Expr Expr) (distinct Expr Expr) ))
    (Expr Int ((Variable Int) (Constant Int) (select Arr Expr) ))
    (Arr (Array Int Int) ((Variable (Array Int Int)) (Constant (Array Int Int)) )))
)
(define-fun mainvNewDefault.i.i!_Cond ((vg_0 Int) (vfind_condition_0 Int) (mainv%loop.bound_0 Int) (mainv%loop.bound24_0 Int) (mainv%loop.bound25_0 Int) (mainv%loop.bound26_0 Int) (mainv%loop.bound27_0 Int) (mainv%loop.bound28_0 Int) (mainv%loop.bound29_0 Int) (mainv%loop.bound30_0 Int) (mainv%loop.bound32_0 Int) (mainv%_39_0 Int) (mainv%.66.i.i_0 Int) (mainv%_42_0 Bool) (mainv%_43_0 Bool) (mainv%_44_0 Bool) (mainv%..i.i_0 Int) (mainv%.70.i.i_0 Int) (mainv%or.cond73.i.i_0 Bool) (mainv%.67.i.i_0 Int) (mainv%_48_0 Bool) (mainv%_49_0 Bool) (mainv%or.cond72.i.i_0 Bool) (mainv%or.cond.i.i_0 Bool) (mainv%.052.i.i.ph_0 Int) (mainv%.049.i.i.ph_0 Int) (mainv%.046.i.i.ph_0 Int) (mainv%.0.i.i.ph_0 Int) (mainv%.038.i.i_0 Int) ) Bool
	true
)
(define-fun mainv_58 ((mainv%.052.i.i.ph_0 Int) (mainv%.049.i.i.ph_0 Int) (mainv%.046.i.i.ph_0 Int) (mainv%.0.i.i.ph_0 Int) (mainv%or.cond.i.i_0 Bool) (mainv%_49_0 Bool) (mainv%or.cond72.i.i_0 Bool) (vg_0 Int) (mainv%..i.i_0 Int) (mainv%.67.i.i_0 Int) (mainv%_48_0 Bool) (mainv%_39_0 Int) (mainv%.038.i.i_0 Int) (mainv%or.cond73.i.i_0 Bool) (mainv%_44_0 Bool) (mainv%.70.i.i_0 Int) (mainv%_43_0 Bool) (mainv%loop.bound30_0 Int) (mainv%_42_0 Bool) (mainv%loop.bound32_0 Int) (mainv%.66.i.i_0 Int) (mainv%loop.bound29_0 Int) (mainv%loop.bound28_0 Int) (vfind_condition_0 Int) (mainv%loop.bound27_0 Int) (mainv%loop.bound26_0 Int) (mainv%loop.bound25_0 Int) (mainv%loop.bound24_0 Int) (mainv%loop.bound_0 Int) ) Bool
	true
)
(define-fun mainv_56 ((mainv%.052.i.i.ph_0 Int) (mainv%.049.i.i.ph_0 Int) (mainv%.046.i.i.ph_0 Int) (mainv%.0.i.i.ph_0 Int) (mainv%or.cond.i.i_0 Bool) (mainv%_49_0 Bool) (mainv%or.cond72.i.i_0 Bool) (vg_0 Int) (mainv%..i.i_0 Int) (mainv%.67.i.i_0 Int) (mainv%_48_0 Bool) (mainv%_39_0 Int) (mainv%or.cond73.i.i_0 Bool) (mainv%_44_0 Bool) (mainv%.70.i.i_0 Int) (mainv%_43_0 Bool) (mainv%loop.bound30_0 Int) (mainv%_42_0 Bool) (mainv%loop.bound32_0 Int) (mainv%.66.i.i_0 Int) (mainv%loop.bound29_0 Int) (mainv%loop.bound28_0 Int) (vfind_condition_0 Int) (mainv%loop.bound27_0 Int) (mainv%loop.bound26_0 Int) (mainv%loop.bound25_0 Int) (mainv%loop.bound24_0 Int) (mainv%loop.bound_0 Int) ) Bool
	true
)
(define-fun psi_f_0 ((vg_0 Int) (vfind_condition_0 Int) (mainv%loop.bound_0 Int) (mainv%loop.bound24_0 Int) (mainv%loop.bound25_0 Int) (mainv%loop.bound26_0 Int) (mainv%loop.bound27_0 Int) (mainv%loop.bound28_0 Int) (mainv%loop.bound29_0 Int) (mainv%loop.bound30_0 Int) (mainv%loop.bound32_0 Int) (mainv%_39_0 Int) (mainv%.66.i.i_0 Int) (mainv%_42_0 Bool) (mainv%_43_0 Bool) (mainv%_44_0 Bool) (mainv%..i.i_0 Int) (mainv%.70.i.i_0 Int) (mainv%or.cond73.i.i_0 Bool) (mainv%.67.i.i_0 Int) (mainv%_48_0 Bool) (mainv%_49_0 Bool) (mainv%or.cond72.i.i_0 Bool) (mainv%or.cond.i.i_0 Bool) (mainv%.052.i.i.ph_0 Int) (mainv%.049.i.i.ph_0 Int) (mainv%.046.i.i.ph_0 Int) (mainv%.0.i.i.ph_0 Int) (mainv%.038.i.i_0 Int) ) Bool
(and (mainv_56 mainv%.052.i.i.ph_0
          mainv%.049.i.i.ph_0
          mainv%.046.i.i.ph_0
          mainv%.0.i.i.ph_0
          mainv%or.cond.i.i_0
          mainv%_49_0
          mainv%or.cond72.i.i_0
          vg_0
          mainv%..i.i_0
          mainv%.67.i.i_0
          mainv%_48_0
          mainv%_39_0
          mainv%or.cond73.i.i_0
          mainv%_44_0
          mainv%.70.i.i_0
          mainv%_43_0
          mainv%loop.bound30_0
          mainv%_42_0
          mainv%loop.bound32_0
          mainv%.66.i.i_0
          mainv%loop.bound29_0
          mainv%loop.bound28_0
          vfind_condition_0
          mainv%loop.bound27_0
          mainv%loop.bound26_0
          mainv%loop.bound25_0
          mainv%loop.bound24_0
          mainv%loop.bound_0) (not (mainvNewDefault.i.i!_Cond
  vg_0
  vfind_condition_0
  mainv%loop.bound_0
  mainv%loop.bound24_0
  mainv%loop.bound25_0
  mainv%loop.bound26_0
  mainv%loop.bound27_0
  mainv%loop.bound28_0
  mainv%loop.bound29_0
  mainv%loop.bound30_0
  mainv%loop.bound32_0
  mainv%_39_0
  mainv%.66.i.i_0
  mainv%_42_0
  mainv%_43_0
  mainv%_44_0
  mainv%..i.i_0
  mainv%.70.i.i_0
  mainv%or.cond73.i.i_0
  mainv%.67.i.i_0
  mainv%_48_0
  mainv%_49_0
  mainv%or.cond72.i.i_0
  mainv%or.cond.i.i_0
  mainv%.052.i.i.ph_0
  mainv%.049.i.i.ph_0
  mainv%.046.i.i.ph_0
  mainv%.0.i.i.ph_0
  mainv%.038.i.i_0)))
)
(define-fun psi_t_0 ((vg_0 Int) (vfind_condition_0 Int) (mainv%loop.bound_0 Int) (mainv%loop.bound24_0 Int) (mainv%loop.bound25_0 Int) (mainv%loop.bound26_0 Int) (mainv%loop.bound27_0 Int) (mainv%loop.bound28_0 Int) (mainv%loop.bound29_0 Int) (mainv%loop.bound30_0 Int) (mainv%loop.bound32_0 Int) (mainv%_39_0 Int) (mainv%.66.i.i_0 Int) (mainv%_42_0 Bool) (mainv%_43_0 Bool) (mainv%_44_0 Bool) (mainv%..i.i_0 Int) (mainv%.70.i.i_0 Int) (mainv%or.cond73.i.i_0 Bool) (mainv%.67.i.i_0 Int) (mainv%_48_0 Bool) (mainv%_49_0 Bool) (mainv%or.cond72.i.i_0 Bool) (mainv%or.cond.i.i_0 Bool) (mainv%.052.i.i.ph_0 Int) (mainv%.049.i.i.ph_0 Int) (mainv%.046.i.i.ph_0 Int) (mainv%.0.i.i.ph_0 Int) (mainv%.038.i.i_0 Int) ) Bool
(or (mainvNewDefault.i.i!_Cond
  vg_0
  vfind_condition_0
  mainv%loop.bound_0
  mainv%loop.bound24_0
  mainv%loop.bound25_0
  mainv%loop.bound26_0
  mainv%loop.bound27_0
  mainv%loop.bound28_0
  mainv%loop.bound29_0
  mainv%loop.bound30_0
  mainv%loop.bound32_0
  mainv%_39_0
  mainv%.66.i.i_0
  mainv%_42_0
  mainv%_43_0
  mainv%_44_0
  mainv%..i.i_0
  mainv%.70.i.i_0
  mainv%or.cond73.i.i_0
  mainv%.67.i.i_0
  mainv%_48_0
  mainv%_49_0
  mainv%or.cond72.i.i_0
  mainv%or.cond.i.i_0
  mainv%.052.i.i.ph_0
  mainv%.049.i.i.ph_0
  mainv%.046.i.i.ph_0
  mainv%.0.i.i.ph_0
  mainv%.038.i.i_0) (not (mainv_58 mainv%.052.i.i.ph_0
          mainv%.049.i.i.ph_0
          mainv%.046.i.i.ph_0
          mainv%.0.i.i.ph_0
          mainv%or.cond.i.i_0
          mainv%_49_0
          mainv%or.cond72.i.i_0
          vg_0
          mainv%..i.i_0
          mainv%.67.i.i_0
          mainv%_48_0
          mainv%_39_0
          mainv%.038.i.i_0
          mainv%or.cond73.i.i_0
          mainv%_44_0
          mainv%.70.i.i_0
          mainv%_43_0
          mainv%loop.bound30_0
          mainv%_42_0
          mainv%loop.bound32_0
          mainv%.66.i.i_0
          mainv%loop.bound29_0
          mainv%loop.bound28_0
          vfind_condition_0
          mainv%loop.bound27_0
          mainv%loop.bound26_0
          mainv%loop.bound25_0
          mainv%loop.bound24_0
          mainv%loop.bound_0)))
)
(declare-var vg_0 Int)
(declare-var vfind_condition_0 Int)
(declare-var mainv%loop.bound_0 Int)
(declare-var mainv%loop.bound24_0 Int)
(declare-var mainv%loop.bound25_0 Int)
(declare-var mainv%loop.bound26_0 Int)
(declare-var mainv%loop.bound27_0 Int)
(declare-var mainv%loop.bound28_0 Int)
(declare-var mainv%loop.bound29_0 Int)
(declare-var mainv%loop.bound30_0 Int)
(declare-var mainv%loop.bound32_0 Int)
(declare-var mainv%_39_0 Int)
(declare-var mainv%.66.i.i_0 Int)
(declare-var mainv%_42_0 Bool)
(declare-var mainv%_43_0 Bool)
(declare-var mainv%_44_0 Bool)
(declare-var mainv%..i.i_0 Int)
(declare-var mainv%.70.i.i_0 Int)
(declare-var mainv%or.cond73.i.i_0 Bool)
(declare-var mainv%.67.i.i_0 Int)
(declare-var mainv%_48_0 Bool)
(declare-var mainv%_49_0 Bool)
(declare-var mainv%or.cond72.i.i_0 Bool)
(declare-var mainv%or.cond.i.i_0 Bool)
(declare-var mainv%.052.i.i.ph_0 Int)
(declare-var mainv%.049.i.i.ph_0 Int)
(declare-var mainv%.046.i.i.ph_0 Int)
(declare-var mainv%.0.i.i.ph_0 Int)
(declare-var mainv%.038.i.i_0 Int)
(constraint (=> (psi_f_0 vg_0 vfind_condition_0 mainv%loop.bound_0 mainv%loop.bound24_0 mainv%loop.bound25_0 mainv%loop.bound26_0 mainv%loop.bound27_0 mainv%loop.bound28_0 mainv%loop.bound29_0 mainv%loop.bound30_0 mainv%loop.bound32_0 mainv%_39_0 mainv%.66.i.i_0 mainv%_42_0 mainv%_43_0 mainv%_44_0 mainv%..i.i_0 mainv%.70.i.i_0 mainv%or.cond73.i.i_0 mainv%.67.i.i_0 mainv%_48_0 mainv%_49_0 mainv%or.cond72.i.i_0 mainv%or.cond.i.i_0 mainv%.052.i.i.ph_0 mainv%.049.i.i.ph_0 mainv%.046.i.i.ph_0 mainv%.0.i.i.ph_0 mainv%.038.i.i_0 ) (Condition_0 vg_0 vfind_condition_0 mainv%loop.bound_0 mainv%loop.bound24_0 mainv%loop.bound25_0 mainv%loop.bound26_0 mainv%loop.bound27_0 mainv%loop.bound28_0 mainv%loop.bound29_0 mainv%loop.bound30_0 mainv%loop.bound32_0 mainv%_39_0 mainv%.66.i.i_0 mainv%_42_0 mainv%_43_0 mainv%_44_0 mainv%..i.i_0 mainv%.70.i.i_0 mainv%or.cond73.i.i_0 mainv%.67.i.i_0 mainv%_48_0 mainv%_49_0 mainv%or.cond72.i.i_0 mainv%or.cond.i.i_0 mainv%.052.i.i.ph_0 mainv%.049.i.i.ph_0 mainv%.046.i.i.ph_0 mainv%.0.i.i.ph_0 mainv%.038.i.i_0 )))
(constraint (=> (Condition_0 vg_0 vfind_condition_0 mainv%loop.bound_0 mainv%loop.bound24_0 mainv%loop.bound25_0 mainv%loop.bound26_0 mainv%loop.bound27_0 mainv%loop.bound28_0 mainv%loop.bound29_0 mainv%loop.bound30_0 mainv%loop.bound32_0 mainv%_39_0 mainv%.66.i.i_0 mainv%_42_0 mainv%_43_0 mainv%_44_0 mainv%..i.i_0 mainv%.70.i.i_0 mainv%or.cond73.i.i_0 mainv%.67.i.i_0 mainv%_48_0 mainv%_49_0 mainv%or.cond72.i.i_0 mainv%or.cond.i.i_0 mainv%.052.i.i.ph_0 mainv%.049.i.i.ph_0 mainv%.046.i.i.ph_0 mainv%.0.i.i.ph_0 mainv%.038.i.i_0 ) (psi_t_0 vg_0 vfind_condition_0 mainv%loop.bound_0 mainv%loop.bound24_0 mainv%loop.bound25_0 mainv%loop.bound26_0 mainv%loop.bound27_0 mainv%loop.bound28_0 mainv%loop.bound29_0 mainv%loop.bound30_0 mainv%loop.bound32_0 mainv%_39_0 mainv%.66.i.i_0 mainv%_42_0 mainv%_43_0 mainv%_44_0 mainv%..i.i_0 mainv%.70.i.i_0 mainv%or.cond73.i.i_0 mainv%.67.i.i_0 mainv%_48_0 mainv%_49_0 mainv%or.cond72.i.i_0 mainv%or.cond.i.i_0 mainv%.052.i.i.ph_0 mainv%.049.i.i.ph_0 mainv%.046.i.i.ph_0 mainv%.0.i.i.ph_0 mainv%.038.i.i_0 )))
(check-synth)
